!hf 3-21G opt freq
!PAL2

*int 0 1
   C     0     0     0        0.00000        0.00000        0.00000
   C     1     0     0        1.33579        0.00000        0.00000
   H     1     2     0        1.08549      121.05026        0.00000
   H     1     2     3        1.08549      121.05026      180.00000
   H     2     1     3        1.08549      121.05026        0.00000
   H     2     1     3        1.08549      121.05026      180.00000
*