! BP def2-SVP def2/J

%paras
	R = 140.0000,50.00000 , 30
	B = 0.70000 ,2.000000 , 30  
end

*int 0 1
	O      0   0   0     0.000000000000     0.00000000     0.00000000
	O      1   0   0     {B}     			0.00000000     0.00000000
	O      2   1   0     {B}   				{R}    		   0.00000000
*