! BP def2-SVP def2/J opt

%geom scan 
	A 0 1 2 = 130.000 , 50.000 , 50
end
end
*int 0 1
	O      0   0   0     0.000000000000     0.00000000     0.00000000
	O      1   0   0     1.250027545453     0.00000000     0.00000000
	O      2   1   0     1.250022680669   118.36506395     0.00000000
*