!B3LYP DEF2-SVP OPT
!Pal2

* int 0 1
   O     0     0     0        0.00000        0.00000        0.00000
   O     1     0     0        1.35200        0.00000        0.00000
   O     2     1     0        1.35200        111.400        0.00000
*

