!PAL2
!HF DEF2-SVP



*xyz 0 2
H 	0.0	0.0	0.0
*