! BP def2-SVP def2/J

%paras
	R = 118.32108267,40,50
	B = 1.00000 ,2.500000 , 50  
end

*int 0 1
	O      0   0   0     0.000000000000     0.00000000     0.00000000
	O      1   0   0     {B}     			0.00000000     0.00000000
	O      2   1   0     {B}   				{R}    		   0.00000000
*