!b3lyp 3-21G opt Freq
!Largeprint


*int 0 1
	H	0	0	0	0.0		0.0		0.0
	H 	1 	0	0	0.74	0.0		0.0
*	