!PM3 OptTS NumFreq


*int -1 1
	C      0   0   0     0.000000000000     0.00000000     0.00000000
	Cl     1   0   0     2.079585242487     0.00000000     0.00000000
	H      1   2   0     1.081721867911    96.03923931     0.00000000
	H      1   2   3     1.081741782719    96.03225715   239.99909738
	H      1   2   3     1.081734493373    96.03564226   120.00574515
	F      1   2   3     2.100000027633   179.98926144    28.59469063
*