!PM3 Opt 


%geom scan
	 B 7 9 = 2.544 , 0.7 , 30
end
end

*int 0 1
   C     0     0     0        0.00000        0.00000        0.00000
   C     1     0     0        1.52458        0.00000        0.00000
   H     1     2     0        1.11081      110.53781        0.00000
   H     1     2     3        1.10545      109.83648      238.86890
   H     1     2     3        1.11084      110.59188      117.70663
   C     2     1     3        1.52459      116.32806      301.02006
   H     6     2     1        1.11088      110.54692      300.76195
   H     6     2     1        1.10546      109.83506      179.67306
   H     6     2     1        1.11080      110.60741       58.47703
   O     2     1     3        1.22101      121.83952      121.02645
*
