!hf sp def2-svp tightscf
!PAL4
!ALLPOP
!LARGEPRINT


*xyz -9 6 
    Cr       -0.00000        0.00000        0.00000
    O       -2.15878        0.00000       -0.00000
    O        2.15878        0.00000       -0.00000
    O        0.00000       -2.15878       -0.00000
    O        0.00000        2.15878       -0.00000
    O        0.00000       -0.00000        2.15878
    O        0.00000       -0.00000       -2.15878
*
#%pointcharges "PointCharges.pc"



