! BP RI OPT def2-SVP def2/J 
!PAL2


* int 0 1
   C     0     0     0        0.00000        0.00000        0.00000
   C     1     0     0        1.50479        0.00000        0.00000
   H     1     2     0        1.09263      109.55055        0.00000
   H     1     2     3        1.09352      109.69698      240.27351
   H     1     2     3        1.09287      109.63800      121.04046
   C     2     1     3        1.50479      116.74717      295.06697
   H     6     2     1        1.09287      109.62996      303.38780
   H     6     2     1        1.09352      109.69867      184.14068
   H     6     2     1        1.09264      109.55637       64.43098
   O     2     1     3        1.23006      121.61872      113.72179
*

