!HF Freq def2-SVP 
!PAL2


*int 0 1
    C      0   0   0     0.000000000000     0.00000000     0.00000000
    C      1   0   0     1.524579455348     0.00000000     0.00000000
    H      1   2   0     1.110814431562   110.53781190     0.00000000
    H      1   2   3     1.105453354505   109.83646646   238.86889347
    H      1   2   3     1.110836047751   110.59186188   117.70661606
    C      2   1   3     1.524586535308   116.32804112   301.02004973
    H      6   2   1     1.110875949412   110.54696976   300.76192478
    H      6   2   1     1.105458425981   109.83504254   179.67305048
    H      6   2   1     1.110799993188   110.60744111    58.47705812
    O      2   1   3     1.221009403011   121.83949219   121.02644250
*