!freq 

* int 0 1
   O     0     0     0        0.00000        0.00000        0.00000
   H     1     0     0        0.96900        0.00000        0.00000
   H     1     2     0        1.50000      103.97800        0.00000
*